1427
889
3092
3541
726
309
2398
2155
1726
2474
1955
564
3869
2416
2745
2303
671
1422
1442
2409
1053
1835
1411
2634
3400
3523
3142
2429
3068
1947
2432
1805
1523
2350
1105
1686
1711
2791
2571
3715
2023
2396
2261
1693
1342
2214
1260
1205
2579
679
2601
466
3427
3305
2416
2359
3316
3032
2328
1599
2144
3336
1927
2047
1865
2160
970
2705
1582
1603

37167
8154
82775
97404
1352
696
56426
58229
54664
67572

907
199
2020
2377
33
17
1377
1421
1334
1649

3400.2

50
11
112
131
2
1
76
79
74
91
67
8
146
87
102
101
21
60
60
99
27
59
61
114
148
141
130
98
150
73
76
84
75
111
40
66
44
126
88
142
76
70
89
37
18
105
18
56
124
3
122
14
130
149
116
110
140
139
90
72
64
122
89
59
71
68
24
134
63
66
